c --- [ banner ] -------------------------------------------------------------
c 
c CaDiCaL Radically Simplified CDCL SAT Solver
c Copyright (c) 2016-2021 A. Biere, M. Fleury, N. Froleyks
c 
c Version 1.5.2 a5f15211db36c3956764e18194dd5bd63bf3b5e6
c g++ (GCC) 9.3.0 -Wall -Wextra -O3 -DNDEBUG
c Fri Oct 21 01:27:37 EDT 2022 Linux gra-login3 3.10.0-1160.66.1.el7.x86_64 x86_64
c 
c --- [ limit ] --------------------------------------------------------------
c 
c setting conflict limit to 200000 conflicts (due to '200000')
c 
c --- [ parsing input ] ------------------------------------------------------
c 
c reading DIMACS file from '33.cubes7263.adj'
c opening file to read '33.cubes7263.adj'
c found 'p cnf 6160 1595479' header
c parsed 1595479 clauses in 19.59 seconds process time
c closing file '33.cubes7263.adj'
c after reading 1457566801 bytes 1390.0 MB
c 
c --- [ options ] ------------------------------------------------------------
c 
c all options are set to their default value
c 
c --- [ solving ] ------------------------------------------------------------
c 
c time measured in process time since initialization
c 
c  seconds    reductions  redundant   irredundant
c          MB     restarts       trail       variables
c            level   conflicts       glue         remaining
c 
c * 19.59 1381  0 0   0    0    0  0% 0 1595422 2380 39%
c { 20.81 1439  0 0   0    0    0  0% 0 1595422 2380 39%
c i 26.09 1516 547 0  18  133  109 31% 25 1595422 2379 39%
c i 26.18 1516 538 0  19  136  111 31% 25 1595422 2375 39%
c i 27.29 1520 387 0  25  191  145 28% 21 1595422 2361 38%
c i 28.15 1522 286 0  42  271  210 28% 24 1595422 2358 38%
c i 28.60 1525 275 0  46  288  226 28% 27 1595422 2357 38%
c - 33.53 1515 267 1  51  301  238 28% 27 387027 2357 38%
c i 35.29 1517 224 1  69  380  300 27% 28 387027 2355 38%
c i 35.90 1517 196 1  69  447  357 28% 27 387027 2343 38%
c i 35.94 1517 195 1  69  450  359 28% 27 387027 2342 38%
c i 36.87 1395 172 1  88  557  446 28% 30 387027 2323 38%
c i 37.82 1395 164 1 104  627  501 28% 31 387027 2319 38%
c i 38.10 1395 162 1 107  638  511 28% 31 387027 2312 38%
c i 38.27 1395 160 1 111  651  522 28% 31 387027 2311 38%
c i 39.28 1396 153 1 130  719  580 28% 32 387027 2310 38%
c i 39.53 1397 148 1 130  752  607 28% 32 387027 2309 37%
c i 39.54 1397 147 1 130  756  610 28% 32 387027 2308 37%
c i 39.68 1397 147 1 130  766  619 28% 32 387027 2307 37%
c i 40.50 1398 143 1 139  819  663 28% 32 387027 2305 37%
c 
c  seconds     reductions  redundant   irredundant
c          MB      restarts       trail       variables
c             level   conflicts       glue         remaining
c 
c } 41.26 1398 121 1 140 1000  778 28% 29 387027 2305 37%
c [ 41.26 1398  0 1 140 1000  778  0% 0 387027 2305 37%
c O 41.29 1398 22 1 140 1003  781 30% 18 387027 2305 37%
c i 41.73 1398 25 1 140 1121  871 31% 20 387027 2304 37%
c - 42.71 1521 24 2 140 1254  854 32% 20 336670 2304 37%
c i 43.18 1521 24 2 140 1827 1194 33% 21 336670 2303 37%
c i 43.23 1521 23 2 140 1921 1252 33% 20 336670 2302 37%
c i 43.26 1521 24 2 140 1965 1283 33% 20 336670 2301 37%
c i 43.32 1521 24 2 141 2105 1376 33% 21 336670 2300 37%
c i 43.44 1521 23 2 141 2387 1531 33% 20 336670 2299 37%
c - 43.98 1519 22 3 141 2628 1243 33% 19 336655 2299 37%
c i 44.45 1519 22 3 141 2695 1284 56% 19 336655 2298 37%
c i 44.47 1519 22 3 141 2712 1294 55% 19 336655 2297 37%
c i 44.47 1519 22 3 141 2713 1294 55% 19 336655 2296 37%
c i 44.64 1519 22 3 141 2930 1418 54% 19 336655 2295 37%
c i 44.67 1519 22 3 141 2985 1450 55% 19 336655 2294 37%
c ] 44.68 1519 22 3 141 3002 1458 55% 19 336655 2294 37%
c { 44.68 1519 121 3 141 3002 1458 76% 29 336655 2294 37%
c F 44.70 1519 121 3 141 3004 1460 76% 29 336655 2294 37%
c i 45.08 1519 117 3 141 3047 1497 75% 29 336655 2293 37%
c 
c  seconds     reductions  redundant   irredundant
c          MB      restarts       trail       variables
c             level   conflicts       glue         remaining
c 
c i 45.21 1519 113 3 141 3099 1544 74% 29 336655 2292 37%
c i 45.58 1519 112 3 148 3135 1578 73% 29 336655 2291 37%
c i 45.69 1519 113 3 151 3151 1590 72% 30 336655 2290 37%
c i 47.42 1519 107 3 187 3371 1782 68% 31 336655 2289 37%
c i 47.43 1519 107 3 187 3379 1788 68% 31 336655 2288 37%
c i 47.49 1519 104 3 187 3438 1838 67% 31 336655 2287 37%
c i 47.49 1519 104 3 187 3439 1838 67% 31 336655 2286 37%
c i 47.50 1519 103 3 187 3447 1845 67% 30 336655 2285 37%
c i 47.79 1519 92 3 189 3748 2094 64% 30 336655 2284 37%
c i 48.31 1519 87 3 198 3974 2271 63% 29 336655 2283 37%
c i 48.34 1519 87 3 198 3985 2281 62% 29 336655 2282 37%
c i 48.45 1519 86 3 198 4002 2297 62% 29 336655 2281 37%
c i 48.49 1519 86 3 198 4019 2309 62% 29 336655 2280 37%
c i 48.56 1519 85 3 198 4050 2333 62% 29 336655 2279 37%
c i 48.71 1519 83 3 198 4124 2391 62% 29 336655 2278 37%
c i 48.71 1519 83 3 198 4131 2397 62% 29 336655 2277 37%
c i 48.74 1519 83 3 199 4141 2403 61% 29 336655 2276 37%
c i 48.92 1519 82 3 202 4175 2433 61% 29 336655 2275 37%
c i 49.06 1519 82 3 202 4208 2462 61% 29 336655 2274 37%
c i 49.41 1519 81 3 213 4297 2530 60% 29 336655 2273 37%
c 
c  seconds    reductions  redundant   irredundant
c          MB     restarts       trail       variables
c            level   conflicts       glue         remaining
c 
c i 49.42 1519 81 3 213 4305 2534 60% 29 336655 2272 37%
c i 49.43 1519 81 3 213 4313 2538 60% 29 336655 2271 37%
c i 49.62 1519 78 3 213 4457 2641 59% 28 336655 2270 37%
c - 50.03 1366 78 4 213 4461 1957 59% 28 336568 2270 37%
c i 50.20 1366 78 4 213 4479 1966 59% 28 336568 2269 37%
c i 50.31 1366 78 4 213 4492 1976 59% 28 336568 2268 37%
c i 50.86 1366 76 4 218 4626 2069 58% 28 336568 2267 37%
c i 51.32 1366 73 4 225 4827 2213 57% 28 336568 2266 37%
c i 51.67 1366 72 4 226 4955 2323 57% 28 336568 2265 37%
c d 52.29 1366 71 4 226 5002 2351 57% 27 336533 2255 37%
c 2 52.39 1366 71 4 226 5002 3689 57% 27 336533 2254 37%
c p 63.13 1366 71 4 226 5002 6834 57% 27 336533 2195 36%
c d 63.72 1366 71 4 226 5002 6678 57% 27 336366 2194 36%
c # 65.73 1366 59 4 244 6012 7275 54% 24 336366 2194 36%
c - 66.87 1366 54 5 244 6751 2697 53% 23 336366 2194 36%
c } 67.12 1367 52 5 244 7002 2880 53% 23 336366 2194 36%
c [ 67.12 1367 22 5 244 7002 2880 55% 19 336366 2194 36%
c - 69.39 1367 21 6 246 9499 3217 50% 18 336366 2194 36%
c I 69.93 1367 21 6 246 10013 3535 50% 18 336366 2194 36%
c - 74.93 1367 27 7 248 12707 3876 51% 22 336366 2194 36%
c 
c  seconds    reductions   redundant   irredundant
c          MB     restarts        trail       variables
c            level    conflicts       glue         remaining
c 
c ] 78.26 1367 29 7 249 15003 5407 51% 24 336366 2194 36%
c { 78.26 1367 52 7 249 15003 5407 53% 23 336366 2194 36%
c p 82.18 1367 52 7 249 15003 9507 53% 23 336366 2194 36%
c B 82.61 1367 52 7 251 15018 9522 53% 23 336366 2194 36%
c - 86.27 1367 47 8 311 16372 4591 53% 23 336366 2194 36%
c } 87.93 1367 41 8 319 17967 5514 52% 21 336366 2194 36%
c 1 87.93 1367 41 8 319 17967 5514 52% 21 336366 2194 36%
c 
c --- [ writing output ] -----------------------------------------------------
c 
c writing simplified CNF to DIMACS file 'simp/33.cubes7263.adj.simp1'
c * 87.93 1367 41 8 319 17967 5514 52% 21 336366 2194 36%
c opening file to write 'simp/33.cubes7263.adj.simp1'
c writing 'p cnf 6160 336366' header
c closing file 'simp/33.cubes7263.adj.simp1'
c after writing 157285667 bytes 150.0 MB
c wrote 336366 clauses in 1.16 seconds process time
c 
c --- [ writing extension ] --------------------------------------------------
c 
c writing extension stack to 'simp/33.cubes7263.adj.ext1'
c opening file to write 'simp/33.cubes7263.adj.ext1'
c closing file 'simp/33.cubes7263.adj.ext1'
c after writing 12471 bytes 0.0 MB
c wrote 833 witnesses in 0.00 seconds process time
c 
c --- [ result ] -------------------------------------------------------------
c 
s SATISFIABLE
c 
c --- [ run-time profiling ] -------------------------------------------------
c 
c process time taken by individual solving procedures
c (percentage relative to process time for solving)
c 
c        52.35   76.60% search
c        36.56   53.49% unstable
c        19.59   28.66% parse
c        15.99   23.40% simplify
c        14.57   21.32% stable
c        14.57   21.31% probe
c         1.22    1.79% lucky
c         0.12    0.18% ternary
c   =================================
c        68.34   76.71% solve
c 
c last line shows process time for solving
c (percentage relative to total process time)
c 
c --- [ statistics ] ---------------------------------------------------------
c 
c chronological:              3737        20.80 %  of conflicts
c conflicts:                 17967       262.91    per second
c decisions:                 49982       731.37    per second
c fixed:                       811        13.17 %  of all variables
c learned:                   17511        97.46 %  per conflict
c learned_lits:            3205071       100.00 %  learned literals
c minimized:                     0         0.00 %  learned literals
c shrunken:                2146092        66.96 %  learned literals
c minishrunken:             196579         6.13 %  learned literals
c propagations:            2539951         0.04 M  per second
c reduced:                    6774        37.70 %  per conflict
c rephased:                      5      3593.40    interval
c restarts:                    319        56.32    interval
c stabilizing:                   2        55.67 %  of conflicts
c substituted:                  11         0.18 %  of all variables
c subsumed:                   5387         0.16 %  of all clauses
c ternary:                    2505         0.66 %  of resolved
c weakened:                     22         2.00    average size
c 
c seconds are measured in process time for solving
c 
c --- [ resources ] ----------------------------------------------------------
c 
c total process time since initialization:        89.09    seconds
c total real time since initialization:           91.93    seconds
c maximum resident set size of process:         1674.21    MB
c 
c --- [ shutting down ] ------------------------------------------------------
c 
c exit 10
WARNING! DIMACS header mismatch: wrong number of variables.
============================[ Problem Statistics ]=============================
|                                                                             |
|  Number of variables:          6120                                         |
|  Number of clauses:          336368                                         |
|  Parse time:                   2.11 s                                       |
|  Simplification time:          0.04 s                                       |
|                                                                             |
============================[ Search Statistics ]====================================================
| Conflicts |          ORIGINAL         |          LEARNT          | Num Sols |      SUBGRAPHS      |
|           |    Vars  Clauses Literals |    Limit  Clauses Lit/Cl |          | Canonical Noncanon. |
=====================================================================================================
|       183 |    6030   336451 34170624 |     2000      183     32 |        0 |        37        83 |
|       520 |    6030   336638 34172466 |     2000      520     24 |        0 |        94       270 |
|       834 |    6030   336727 34173125 |     2000      834     34 |        0 |       144       359 |
|      1185 |    6030   336741 34173679 |     2000     1185     57 |        0 |       150       373 |
|      2144 |    6030   337194 34179334 |     3604     1148     23 |        0 |       354       826 |
|      2948 |    6030   337239 34180145 |     3604     1952     57 |        0 |       371       871 |
|      4211 |    6030   337363 34181977 |     3604     3215     72 |        0 |       434       995 |
|      6518 |    6030   337962 34189099 |     5002     3720     44 |        0 |       553      1594 |
|      9312 |    6030   338194 34191973 |     6305     4017     47 |        0 |       614      1826 |
|     13553 |    6030   338591 34196856 |     7558     5111     45 |        0 |       719      2223 |
|     19528 |    6030   338800 34200214 |     8783     7311     62 |        0 |       847      2432 |
|     28608 |    6030   339231 34207544 |    11207     7015     44 |        0 |      1015      2863 |
|     41756 |    6030   339405 34210393 |    13609     8365     47 |        0 |      1062      3037 |
|     61907 |    6030   340095 34220522 |    16008    14315     58 |        0 |      1243      3727 |
|     92306 |    6030   341302 34238297 |    19609    18915     72 |        0 |      1623      4934 |
|    137626 |    6030   342833 34258798 |    24406    21432     57 |        0 |      2033      6465 |
|    204199 |    5967   343722 34274096 |    30410    21008     49 |        1 |      2460      7353 |
=====================================================================================================
Number of solutions   : 1
Canonical subgraphs   : 2471           (19 /sec)
          order  3    : 1              (166667 /sec)
          order  4    : 1              (500000 /sec)
          order  5    : 1              (250000 /sec)
          order  6    : 1              (55556 /sec)
          order  7    : 1              (8696 /sec)
          order  8    : 2              (1363 /sec)
          order  9    : 7              (352 /sec)
          order 10    : 23             (96 /sec)
          order 11    : 98             (46 /sec)
          order 12    : 217            (41 /sec)
          order 13    : 155            (64 /sec)
          order 14    : 213            (48 /sec)
          order 15    : 189            (35 /sec)
          order 16    : 229            (23 /sec)
          order 17    : 527            (17 /sec)
          order 18    : 606            (11 /sec)
          order 19    : 114            (11 /sec)
          order 20    : 44             (18 /sec)
          order 21    : 41             (22 /sec)
          order 22    : 1              (1 /sec)
Noncanonical subgraphs: 7365           (123 /sec)
          order  3    : 0              (-nan /sec)
          order  4    : 0              (-nan /sec)
          order  5    : 0              (-nan /sec)
          order  6    : 0              (-nan /sec)
          order  7    : 0              (-nan /sec)
          order  8    : 0              (-nan /sec)
          order  9    : 0              (-nan /sec)
          order 10    : 0              (-nan /sec)
          order 11    : 0              (-nan /sec)
          order 12    : 0              (-nan /sec)
          order 13    : 1722           (2046 /sec)
          order 14    : 793            (2839 /sec)
          order 15    : 202            (1352 /sec)
          order 16    : 1299           (177 /sec)
          order 17    : 1354           (92 /sec)
          order 18    : 1414           (65 /sec)
          order 19    : 538            (41 /sec)
          order 20    : 0              (-nan /sec)
          order 21    : 0              (-nan /sec)
Canonicity checking   : 131.458 s
Noncanonicity checking: 60.0284 s
Total canonicity time : 191.487 s
database reductions   : 24
restarts              : 511
conflicts             : 216050         (801 /sec)
decisions             : 305117         (0.00 % random) (1132 /sec)
propagations          : 20085205       (74512 /sec)
conflict literals     : 21854304       (56.10 % deleted)
actual reward         : 0.133203
Memory used           : 448.00 MB
CPU time              : 269.558 s

UNSATISFIABLE
